n = 8;
t = 3;
r = 3;
d = 1;

P = [[0 0 0 0 1 0 1 1]
    [0 0 1 0 1 0 1 1]
    [0 1 0 1 0 0 0 0]
    [0 0 1 0 0 0 0 0]
    [1 1 0 0 0 0 0 0]
    [0 0 0 0 0 0 0 0]
    [1 1 0 0 0 0 0 0]
    [1 1 0 0 0 0 0 0]];

Q = [[0 0 1 1 0 1 0 0]
    [0 0 0 1 0 1 0 0]
    [1 0 0 0 0 0 0 1]
    [1 1 0 0 1 1 0 1]
    [0 0 0 1 0 0 1 1]
    [1 1 0 1 0 0 0 0]
    [0 0 0 0 1 0 0 1]
    [0 0 1 1 1 0 1 0]];